amountOfEmployees = 30;
horizonLength = 28;
amountOfShifts = 4;

shiftsPerDay = [|0,2,10,0,
|0,10,2,0,
|10,1,1,0,
|10,0,2,0,
|2,10,0,0,
|3,0,10,0,
|10,3,0,0,
|3,12,0,0,
|3,12,0,0,
|10,3,0,0,
|10,2,0,0,
|2,9,0,0,
|10,0,3,0,
|10,2,0,0,
|11,3,0,0,
|14,3,0,0,
|1,1,0,0,
|1,6,0,0,
|3,0,13,0,
|3,1,0,0,
|1,1,10,0,
|10,1,2,0,
|3,0,10,0,
|1,1,0,0,
|2,3,0,0,
|0,0,0,0,
|5,1,0,0,
|2,3,0,0,
|];

preferences = array3d(1..30,1..28,1..4,[2,2,2,1,2,1,4,4,2,2,2,1,2,2,2,1,2,1,4,4,2,1,4,4,2,1,4,4,2,2,2,1,2,1,4,4,2,1,4,4,2,1,4,4,2,1,4,4,2,2,2,1,2,1,4,4,2,2,2,1,2,2,2,1,2,2,2,1,2,2,2,1,2,1,4,4,2,1,4,4,2,2,2,1,2,1,4,4,2,2,2,1,2,1,4,4,2,1,4,4,2,2,2,1,2,2,2,1,3,3,3,1,4,4,4,4,4,1,4,4,4,4,4,4,4,4,4,4,4,1,4,4,4,1,4,4,4,1,4,4,4,4,4,4,4,1,4,4,4,1,4,4,4,1,4,4,4,1,4,4,4,4,4,4,4,1,4,4,4,4,4,4,4,4,4,4,4,4,4,4,4,4,4,4,4,1,4,4,4,1,4,4,4,4,4,4,4,1,4,4,4,4,4,4,4,1,4,4,4,1,4,4,4,4,4,4,4,4,4,4,4,4,4,4,1,2,1,2,1,4,1,1,1,2,1,2,1,2,1,2,1,4,1,1,1,4,1,1,1,4,1,1,1,2,1,2,1,4,1,1,1,4,1,1,1,4,1,1,1,4,1,1,1,2,1,2,1,4,1,1,1,2,1,2,1,2,1,2,1,2,1,2,1,2,1,2,1,4,1,1,1,4,1,1,1,2,1,2,1,4,1,1,1,2,1,2,1,4,1,1,1,4,1,1,1,2,1,2,1,2,1,2,2,2,2,2,3,3,3,3,4,4,4,4,3,3,3,3,3,3,3,3,4,4,4,4,4,4,4,4,4,4,4,4,3,3,3,3,4,4,4,4,4,4,4,4,4,4,4,4,4,4,4,4,3,3,3,3,4,4,4,4,3,3,3,3,3,3,3,3,3,3,3,3,3,3,3,3,4,4,4,4,4,4,4,4,3,3,3,3,4,4,4,4,3,3,3,3,4,4,4,4,4,4,4,4,3,3,3,3,3,3,3,3,2,3,3,3,2,2,2,1,1,2,2,2,2,2,2,1,2,2,2,1,1,2,2,2,1,2,2,2,1,2,2,2,2,2,2,1,1,2,2,2,1,2,2,2,1,2,2,2,1,2,2,2,2,2,2,1,1,2,2,2,2,2,2,1,2,2,2,1,2,2,2,1,2,2,2,1,1,2,2,2,1,2,2,2,2,2,2,1,1,2,2,2,2,2,2,1,1,2,2,2,1,2,2,2,2,2,2,1,2,2,2,1,1,2,2,1,2,2,2,2,2,2,4,4,2,2,2,2,2,2,2,2,2,2,4,4,2,2,4,4,2,2,4,4,2,2,2,2,2,2,4,4,2,2,4,4,2,2,4,4,2,2,4,4,2,2,2,2,2,2,4,4,2,2,2,2,2,2,2,2,2,2,2,2,2,2,2,2,2,2,4,4,2,2,4,4,2,2,2,2,2,2,4,4,2,2,2,2,2,2,4,4,2,2,4,4,2,2,2,2,2,2,2,2,2,2,2,2,2,2,2,1,4,4,1,1,2,2,2,1,2,2,2,1,4,4,1,1,4,4,1,1,4,4,1,1,2,2,2,1,4,4,1,1,4,4,1,1,4,4,1,1,4,4,1,1,2,2,2,1,4,4,1,1,2,2,2,1,2,2,2,1,2,2,2,1,2,2,2,1,4,4,1,1,4,4,1,1,2,2,2,1,4,4,1,1,2,2,2,1,4,4,1,1,4,4,1,1,2,2,2,1,2,2,2,1,4,3,3,1,2,4,2,4,4,4,4,4,2,4,2,4,2,4,2,4,4,4,4,4,4,4,4,4,4,4,4,4,2,4,2,4,4,4,4,4,4,4,4,4,4,4,4,4,4,4,4,4,2,4,2,4,4,4,4,4,2,4,2,4,2,4,2,4,2,4,2,4,2,4,2,4,4,4,4,4,4,4,4,4,2,4,2,4,4,4,4,4,2,4,2,4,4,4,4,4,4,4,4,4,2,4,2,4,2,4,2,4,4,4,4,4,4,1,1,1,2,1,2,2,4,1,1,1,4,1,1,1,2,1,2,2,2,1,2,2,2,1,2,2,4,1,1,1,2,1,2,2,2,1,2,2,2,1,2,2,2,1,2,2,4,1,1,1,2,1,2,2,4,1,1,1,4,1,1,1,4,1,1,1,4,1,1,1,2,1,2,2,2,1,2,2,4,1,1,1,2,1,2,2,4,1,1,1,2,1,2,2,2,1,2,2,4,1,1,1,4,1,1,1,4,1,1,1,1,1,1,3,1,1,4,4,1,1,1,3,1,1,1,3,1,1,4,4,1,1,4,4,1,1,4,4,1,1,1,3,1,1,4,4,1,1,4,4,1,1,4,4,1,1,4,4,1,1,1,3,1,1,4,4,1,1,1,3,1,1,1,3,1,1,1,3,1,1,1,3,1,1,4,4,1,1,4,4,1,1,1,3,1,1,4,4,1,1,1,3,1,1,4,4,1,1,4,4,1,1,1,3,1,1,1,3,1,2,2,3,2,4,2,2,1,3,1,1,2,4,2,2,2,4,2,2,1,3,1,1,1,3,1,1,1,3,1,1,2,4,2,2,1,3,1,1,1,3,1,1,1,3,1,1,1,3,1,1,2,4,2,2,1,3,1,1,2,4,2,2,2,4,2,2,2,4,2,2,2,4,2,2,1,3,1,1,1,3,1,1,2,4,2,2,1,3,1,1,2,4,2,2,1,3,1,1,1,3,1,1,2,4,2,2,2,4,2,2,1,4,4,2,3,3,2,2,1,1,1,1,3,3,2,2,3,3,2,2,1,1,1,1,1,1,1,1,1,1,1,1,3,3,2,2,1,1,1,1,1,1,1,1,1,1,1,1,1,1,1,1,3,3,2,2,1,1,1,1,3,3,2,2,3,3,2,2,3,3,2,2,3,3,2,2,1,1,1,1,1,1,1,1,3,3,2,2,1,1,1,1,3,3,2,2,1,1,1,1,1,1,1,1,3,3,2,2,3,3,2,2,4,2,2,2,2,3,3,2,4,4,4,4,2,3,3,2,2,3,3,2,4,4,4,4,4,4,4,4,4,4,4,4,2,3,3,2,4,4,4,4,4,4,4,4,4,4,4,4,4,4,4,4,2,3,3,2,4,4,4,4,2,3,3,2,2,3,3,2,2,3,3,2,2,3,3,2,4,4,4,4,4,4,4,4,2,3,3,2,4,4,4,4,2,3,3,2,4,4,4,4,4,4,4,4,2,3,3,2,2,3,3,2,2,3,3,2,3,1,3,3,2,4,2,2,3,1,3,3,3,1,3,3,2,4,2,2,2,4,2,2,2,4,2,2,3,1,3,3,2,4,2,2,2,4,2,2,2,4,2,2,2,4,2,2,3,1,3,3,2,4,2,2,3,1,3,3,3,1,3,3,3,1,3,3,3,1,3,3,2,4,2,2,2,4,2,2,3,1,3,3,2,4,2,2,3,1,3,3,2,4,2,2,2,4,2,2,3,1,3,3,3,1,3,3,2,1,1,3,2,2,2,2,2,3,2,2,2,2,2,2,2,2,2,2,2,3,2,2,2,3,2,2,2,3,2,2,2,2,2,2,2,3,2,2,2,3,2,2,2,3,2,2,2,3,2,2,2,2,2,2,2,3,2,2,2,2,2,2,2,2,2,2,2,2,2,2,2,2,2,2,2,3,2,2,2,3,2,2,2,2,2,2,2,3,2,2,2,2,2,2,2,3,2,2,2,3,2,2,2,2,2,2,2,2,2,2,1,2,2,2,2,4,2,1,4,4,1,1,2,4,2,1,2,4,2,1,4,4,1,1,4,4,1,1,4,4,1,1,2,4,2,1,4,4,1,1,4,4,1,1,4,4,1,1,4,4,1,1,2,4,2,1,4,4,1,1,2,4,2,1,2,4,2,1,2,4,2,1,2,4,2,1,4,4,1,1,4,4,1,1,2,4,2,1,4,4,1,1,2,4,2,1,4,4,1,1,4,4,1,1,2,4,2,1,2,4,2,1,4,4,4,1,2,4,3,2,2,4,2,2,2,4,3,2,2,4,3,2,2,4,2,2,2,4,2,2,2,4,2,2,2,4,3,2,2,4,2,2,2,4,2,2,2,4,2,2,2,4,2,2,2,4,3,2,2,4,2,2,2,4,3,2,2,4,3,2,2,4,3,2,2,4,3,2,2,4,2,2,2,4,2,2,2,4,3,2,2,4,2,2,2,4,3,2,2,4,2,2,2,4,2,2,2,4,3,2,2,4,3,2,2,4,4,2,1,4,4,4,2,1,3,3,1,4,4,4,1,4,4,4,2,1,3,3,2,1,3,3,2,1,3,3,1,4,4,4,2,1,3,3,2,1,3,3,2,1,3,3,2,1,3,3,1,4,4,4,2,1,3,3,1,4,4,4,1,4,4,4,1,4,4,4,1,4,4,4,2,1,3,3,2,1,3,3,1,4,4,4,2,1,3,3,1,4,4,4,2,1,3,3,2,1,3,3,1,4,4,4,1,4,4,4,1,4,4,4,2,2,2,4,1,3,1,1,2,2,2,4,2,2,2,4,1,3,1,1,1,3,1,1,1,3,1,1,2,2,2,4,1,3,1,1,1,3,1,1,1,3,1,1,1,3,1,1,2,2,2,4,1,3,1,1,2,2,2,4,2,2,2,4,2,2,2,4,2,2,2,4,1,3,1,1,1,3,1,1,2,2,2,4,1,3,1,1,2,2,2,4,1,3,1,1,1,3,1,1,2,2,2,4,2,2,2,4,1,2,2,4,4,4,4,1,3,4,2,2,4,4,4,1,4,4,4,1,3,4,2,2,3,4,2,2,3,4,2,2,4,4,4,1,3,4,2,2,3,4,2,2,3,4,2,2,3,4,2,2,4,4,4,1,3,4,2,2,4,4,4,1,4,4,4,1,4,4,4,1,4,4,4,1,3,4,2,2,3,4,2,2,4,4,4,1,3,4,2,2,4,4,4,1,3,4,2,2,3,4,2,2,4,4,4,1,4,4,4,1,4,4,4,1,3,4,3,4,4,4,2,2,3,4,3,4,3,4,3,4,4,4,2,2,4,4,2,2,4,4,2,2,3,4,3,4,4,4,2,2,4,4,2,2,4,4,2,2,4,4,2,2,3,4,3,4,4,4,2,2,3,4,3,4,3,4,3,4,3,4,3,4,3,4,3,4,4,4,2,2,4,4,2,2,3,4,3,4,4,4,2,2,3,4,3,4,4,4,2,2,4,4,2,2,3,4,3,4,3,4,3,4,4,4,4,4,2,2,2,2,2,4,2,2,2,2,2,2,2,2,2,2,2,4,2,2,2,4,2,2,2,4,2,2,2,2,2,2,2,4,2,2,2,4,2,2,2,4,2,2,2,4,2,2,2,2,2,2,2,4,2,2,2,2,2,2,2,2,2,2,2,2,2,2,2,2,2,2,2,4,2,2,2,4,2,2,2,2,2,2,2,4,2,2,2,2,2,2,2,4,2,2,2,4,2,2,2,2,2,2,2,2,2,2,4,2,2,2,3,2,2,2,4,1,4,4,3,2,2,2,3,2,2,2,4,1,4,4,4,1,4,4,4,1,4,4,3,2,2,2,4,1,4,4,4,1,4,4,4,1,4,4,4,1,4,4,3,2,2,2,4,1,4,4,3,2,2,2,3,2,2,2,3,2,2,2,3,2,2,2,4,1,4,4,4,1,4,4,3,2,2,2,4,1,4,4,3,2,2,2,4,1,4,4,4,1,4,4,3,2,2,2,3,2,2,2,4,2,2,2,3,2,3,2,2,2,2,2,3,2,3,2,3,2,3,2,2,2,2,2,2,2,2,2,2,2,2,2,3,2,3,2,2,2,2,2,2,2,2,2,2,2,2,2,2,2,2,2,3,2,3,2,2,2,2,2,3,2,3,2,3,2,3,2,3,2,3,2,3,2,3,2,2,2,2,2,2,2,2,2,3,2,3,2,2,2,2,2,3,2,3,2,2,2,2,2,2,2,2,2,3,2,3,2,3,2,3,2,2,2,2,2,1,1,1,1,1,1,4,4,1,1,1,1,1,1,1,1,1,1,4,4,1,1,4,4,1,1,4,4,1,1,1,1,1,1,4,4,1,1,4,4,1,1,4,4,1,1,4,4,1,1,1,1,1,1,4,4,1,1,1,1,1,1,1,1,1,1,1,1,1,1,1,1,1,1,4,4,1,1,4,4,1,1,1,1,1,1,4,4,1,1,1,1,1,1,4,4,1,1,4,4,1,1,1,1,1,1,1,1,2,1,1,1,3,1,3,1,4,1,4,4,3,1,3,1,3,1,3,1,4,1,4,4,4,1,4,4,4,1,4,4,3,1,3,1,4,1,4,4,4,1,4,4,4,1,4,4,4,1,4,4,3,1,3,1,4,1,4,4,3,1,3,1,3,1,3,1,3,1,3,1,3,1,3,1,4,1,4,4,4,1,4,4,3,1,3,1,4,1,4,4,3,1,3,1,4,1,4,4,4,1,4,4,3,1,3,1,3,1,3,1,1,1,1,1,2,2,2,2,1,4,1,1,2,2,2,2,2,2,2,2,1,4,1,1,1,4,1,1,1,4,1,1,2,2,2,2,1,4,1,1,1,4,1,1,1,4,1,1,1,4,1,1,2,2,2,2,1,4,1,1,2,2,2,2,2,2,2,2,2,2,2,2,2,2,2,2,1,4,1,1,1,4,1,1,2,2,2,2,1,4,1,1,2,2,2,2,1,4,1,1,1,4,1,1,2,2,2,2,2,2,2,2,2,2,2,2,1,2,1,1,2,2,2,2,1,2,1,1,1,2,1,1,2,2,2,2,2,2,2,2,2,2,2,2,1,2,1,1,2,2,2,2,2,2,2,2,2,2,2,2,2,2,2,2,1,2,1,1,2,2,2,2,1,2,1,1,1,2,1,1,1,2,1,1,1,2,1,1,2,2,2,2,2,2,2,2,1,2,1,1,2,2,2,2,1,2,1,1,2,2,2,2,2,2,2,2,1,2,1,1,1,2,1,1,1,2,2,1,3,2,3,1,1,4,1,1,3,2,3,1,3,2,3,1,1,4,1,1,1,4,1,1,1,4,1,1,3,2,3,1,1,4,1,1,1,4,1,1,1,4,1,1,1,4,1,1,3,2,3,1,1,4,1,1,3,2,3,1,3,2,3,1,3,2,3,1,3,2,3,1,1,4,1,1,1,4,1,1,3,2,3,1,1,4,1,1,3,2,3,1,1,4,1,1,1,4,1,1,3,2,3,1,3,2,3,1,1,2,2,1,2,4,2,1,1,3,1,1,2,4,2,1,2,4,2,1,1,3,1,1,1,3,1,1,1,3,1,1,2,4,2,1,1,3,1,1,1,3,1,1,1,3,1,1,1,3,1,1,2,4,2,1,1,3,1,1,2,4,2,1,2,4,2,1,2,4,2,1,2,4,2,1,1,3,1,1,1,3,1,1,2,4,2,1,1,3,1,1,2,4,2,1,1,3,1,1,1,3,1,1,2,4,2,1,2,4,2,1,4,4,4,1,]);

minShifts = 20;
maxShifts = 20;
minConsecShifts = 1;
maxConsecShifts = 7;

minConsecSameShifts = [1,1,1,1];
maxConsecSameShifts = [7,7,7,7];

minPerShifts = [4,4,4,0];
maxPerShifts = [12,12,8,24];